! Generated by using cif2qe Version 1.2 - Date: Mon Mar  4 10:46:42 CET 2019
!   _symmetry_space_group_name_H-M = 
!   _symmetry_Int_Tables_number = 
!   _symmetry_cell_setting = 
! a=8.57365  b=8.57365  c=2.85788  alpha=109.471  beta=109.471  gamma=109.471
! Found by cif2qe: lattice = triclinic    Space group =    ibrav = 14
!
!
! Symmetry found:
&CONTROL
title = 'niobium2d'
calculation = 'scf'
restart_mode = 'from_scratch'
prefix = 'niobium2d'
outdir = '/work'
psuedo_dir = '/work'
verbosity = 'high'
etot_conv_thr = 0.0001
forc_conv_thr = 0.001
nstep = 400
tstress = .true.
tprnfor = .true.
/
&SYSTEM
ibrav = 14
a = 8.57365 
b = 8.57365
c = 8.57365
cosAB = -0.33333
cosAC = -0.33333
cosBC = -0.33333
nat = 9
ntyp = 1
ecutwfc = 60
ecutrho = 480
vdw_corr = 'xdm'
xdm_a1 = 1.2153
xdm_a2 = 2.3704
input_DFT = 'PBE' 
occupations = 'smearing'
smearing = 'marzari-vanderbilt'
degauss = 0.01
/
&ELECTRONS
electron_maxstep = 200
conv_thr = 1.0D-7
diago_thr_init = 1e-4
startingpot = 'atomic'
startingwfc = 'atomic'
mixing_mode = 'plain'
mixing_beta = 0.5
mixing_ndim = 8
diagonalization = 'david'
/
&IONS
ion_dynamics = 'bfgs'
/

ATOMIC_SPECIES
Nb 92.096 Nb.pbe-spn-kjpaw_psl.1.0.0.UPF

ATOMIC_POSITIONS angstrom

Nb       0.00000000       0.00000000       3.30000000
Nb       0.00000000       0.00000000      -3.30000000
Nb       1.65000000      -1.65000000      -1.65000000
Nb       3.30000000      -3.30000000       0.00000000
Nb      -1.65000000       1.65000000      -1.65000000
Nb       0.00000000       0.00000000       0.00000000
Nb       1.65000000      -1.65000000       1.65000000
Nb      -3.30000000       3.30000000       0.00000000
Nb      -1.65000000       1.65000000       1.65000000

K_POINTS automatic
2  2  5   0 0 0

!CELL_PARAMETERS
!    16.20185038787724      0.00000000000000      0.00000000000000
!    -5.40061662680169     15.27525109585669      0.00000000000000
!    -1.80020344257160     -2.54587209361245      4.40958009194104



