&projwfc
prefix='niobium2d'
outdir='./'
ngauss=0
degauss=0.01
Emin=-10.0, Emax=10.0, DeltaE=0.1
filproj='niobium2d.proj'
filpdos='niobium2d.pdos'
/
