&bands
outdir = './'
prefix = 'niobium2d'
filband = 'niobium2d.bands'
/
